c WARNING: for repeatability, setting FPU to use double precision
d VARIABLES            141558       
d CONSTRAINTS          515412       
c ============================[ Problem Statistics ]=============================
c |                                                                             |
c |  Number of variables:        141558                                         |
c |  Number of clauses:          515412                                         |
c |  Parse time:                   0.08 s                                       |
c |                                                                             |
c ============================[ Search Statistics ]==============================
c | Conflicts |          ORIGINAL         |          LEARNT          | Progress |
c |           |    Vars  Clauses Literals |    Limit  Clauses Lit/Cl |          |
c ===============================================================================
c |       100 |  111386   437190  1097387 |   160303       98     49 | 21.314 % |
c |       250 |  111386   437190  1097387 |   176333      248     61 | 21.314 % |
c |       475 |  111385   437178  1097357 |   193966      472     62 | 21.315 % |
c |       812 |  111385   437178  1097357 |   213363      809     51 | 21.315 % |
c |      1318 |  111385   437178  1097357 |   234699     1315     47 | 21.315 % |
c |      2077 |  111385   437178  1097357 |   258169     2074     55 | 21.315 % |
c |      3216 |  111385   437178  1097357 |   283986     3213     82 | 21.315 % |
c |      4924 |  111385   437178  1097357 |   312385     4921     86 | 21.315 % |
c |      7486 |  111385   437178  1097357 |   343623     7483     97 | 21.315 % |
c |     11330 |  111385   437178  1097357 |   377986    11327     99 | 21.315 % |
c |     17096 |  111385   437178  1097357 |   415784    17093     99 | 21.315 % |
c |     25745 |  111385   437178  1097357 |   457363    25742    101 | 21.315 % |
c |     38719 |  111385   437178  1097357 |   503099    38716    106 | 21.315 % |
c |     58180 |  111385   437178  1097357 |   553409    58177    107 | 21.315 % |
c |     87372 |  111385   437178  1097357 |   608750    87369    117 | 21.315 % |
c |    131161 |  111385   437178  1097357 |   669625   131158    129 | 21.315 % |
c |    196845 |  111385   437178  1097357 |   736587   196842    135 | 21.315 % |
c |    295371 |  111385   437178  1097357 |   810246   295368    135 | 21.315 % |
c |    443160 |  111385   437178  1097357 |   891271   443157    137 | 21.315 % |
c |    664843 |  111385   437178  1097357 |   980398   664840    147 | 21.315 % |
c |    997368 |  111385   437178  1097357 |  1078438   997365    152 | 21.315 % |
c |   1496156 |  111385   437178  1097357 |  1186282   403332    143 | 21.315 % |
c |   2244338 |  111385   437178  1097357 |  1304910  1151514    162 | 21.315 % |
c ===============================================================================
c restarts              : 4095
c conflicts             : 2391019        (1333 /sec)
c decisions             : 6021904        (0.00 % random) (3356 /sec)
c propagations          : 2839562479     (1582500 /sec)
c conflict literals     : 383182154      (47.73 % deleted)
d RESTARTS             4095
d FAILURES             2391019      
d NODES                6021904      
d BACKTRACKS           6021904      
d PROPAGATIONS         2839562479   
d NOGOODSIZE           160.26 
d MEMORY               1054.00 
d TIME                 1794.35 

s UNKNOWN
